/* Objective function */
min: - 0.0054fpdi - 0.0054fpdo + 0.05apdi + 0.05apdo + 0.0002pi + 0.0002po - 0.5fsi - 0.5fso;

apdi = 0.0 hi + -0.0 li + 9.92756 ri + -0.003 ci + -1.43339 si + -0.0 ti + 0.11224 fTempIi + 0.00293 ami + -112.21137;
asi = 0.0 hi + 0.0 li + -0.0 ri + 0.0 ci + 0.0 si + 0.0 ti + 0.0 fTempIi + 3e-05 ami + 0.00571;
aTempOi = 0.0 hi + -0.0 li + 0.3041 ri + -0.02461 ci + -0.04102 si + 0.0 ti + 0.76758 fTempIi + -0.0001 ami + 6.92637;
fpdi = 0.0 hi + -0.0 li + 10.03466 ri + -5.94521 ci + -0.01764 si + -0.0 ti + -0.54986 fTempIi + 4e-05 ami + 276.34649;
fsi = 0.0 hi + -0.0 li + -8e-05 ri + -0.02364 ci + 1e-05 si + 0.0 ti + 0.00026 fTempIi + -0.0 ami + 2.10176;
fTempOi = 0.0 hi + 0.0 li + -0.30154 ri + 0.02441 ci + 0.04072 si + 0.0 ti + 0.24675 fTempIi + -9e-05 ami + 9.49776;
pi = 0.0 hi + -0.0 li + 780.4625 ri + 3.32014 ci + -81.3612 si + 0.0 ti + 0.0 fTempIi + 0.0 ami + 4055.86898;

apdo = 0.0 ho + -0.0 lo + 12.02288 ro + 0.00445 co + -1.81205 so + -0.0 to + 0.12159 fTempIo + 0.00347 amo + -149.57678;
aso = 0.0 ho + 0.0 lo + 0.0 ro + 0.0 co + 0.0 so + 0.0 to + 0.0 fTempIo + 3e-05 amo + 0.00571;
aTempOo = 0.0 ho + 0.0 lo + -0.31295 ro + 0.02861 co + 0.05476 so + 0.0 to + 0.74983 fTempIo + 0.00011 amo + -0.64729;
fpdo = 0.0 ho + -0.0 lo + 11.06738 ro + -6.95545 co + 0.02623 so + 0.0 to + -0.61949 fTempIo + -5e-05 amo + 310.75436;
fso = 0.0 ho + -0.0 lo + 0.00011 ro + -0.0259 co + -2e-05 so + 0.0 to + 0.00034 fTempIo + 0.0 amo + 2.20492;
fTempOo = 0.0 ho + -0.0 lo + 0.30941 ro + -0.02805 co + -0.05422 so + 0.0 to + 0.25671 fTempIo + 0.0001 amo + 12.75998;
po = 0.0 ho + -0.0 lo + 673.25 ro + 3.31359 co + -72.69476 so + 0.0 to + -0.0 fTempIo + 0.0 amo + 2696.79874;

/* Variable bounds */
aTempOi > 18.6;
1 =r6i + r8i + r10i + r12i + r14i;
ri =6r6i + 8r8i + 10r10i + 12r12i + 14r14i;
1 =s30i + s40i + s50i + s60i;
si =30s30i + 40s40i + 50s50i + 60s60i;
ti = 3;
apdi > 100;
apdi < 300;
asi > 0;
asi < 3;
aTempOi > 5;
aTempOi < 25;
fpdi > 100;
fpdi < 300;
fsi > 0;
fsi < 1.25;
fTempOi > 5;
fTempOi < 25;
pi > 0;
ri > 6;
ri < 14;
ci > 38;
ci < 60;
si > 25;
si < 60;
ti > 1;
ti < 3;
fTempIi > 5;
fTempIi < 25;

/* aTempOo < 11.4; */
1 =r6o + r8o + r10o + r12o + r14o;
ro =6r6o + 8r8o + 10r10o + 12r12o + 14r14o;
1 =s25o + s30o + s40o;
so =25s25o + 30s30o + 40s40o;
to = 1;
apdo > 100;
apdo < 300;
aso > 0;
aso < 3;
aTempOo > 5;
aTempOo < 25;
fpdo > 100;
fpdo < 300;
fso > 0;
fso < 1.25;
fTempOo > 5;
fTempOo < 25;
po > 0;
ro > 6;
ro < 14;
co > 35;
co < 60;
so > 25;
so < 60;
to > 1;
to < 3;
fTempIo > 5;
fTempIo < 25;
int hi,li,si,ti,ci,ri,ami;
int ho,lo,so,to,co,ro,amo;
bin s25i,s30i,s40i,s50i,s60i,r6i,r8i,r10i,r12i,r14i;
bin s25o,s30o,s40o,s50o,s60o,r6o,r8o,r10o,r12o,r14o;
